0 0 0 0
0 1 0 0
0 2 1 0
0 3 0 0
0 4 0 6
0 5 0 8
0 6 0 6
0 7 0 18
0 8 0 7
0 9 0 2
0 10 0 16
0 11 0 10
0 12 2 2
0 13 0 6
0 14 0 11
0 15 0 9
0 16 2 13
0 17 0 11
0 18 0 14
0 19 1 20
0 20 0 18
0 21 0 12
0 22 0 13
0 23 0 22
0 24 2 8
0 25 0 10
0 26 0 19
0 27 0 20
0 28 0 24
0 29 0 24
0 30 0 24
0 31 0 28
